(set-info :Origin "This instance was generated by: BanditFuzz-- an RL fuzzer for SMT solvers" )
(set-info :Author "Joe Scott, Fed Mora, Vijay Ganesh" )
(set-info :Contact "Joe Scott, joseph.scott@uwaterloo.ca")
(set-logic QF_BV)
(declare-const bool_0 Bool)
(declare-const bool_1 Bool)
(declare-const bool_2 Bool)
(declare-const bool_3 Bool)
(declare-const bool_4 Bool)
(declare-const bv_0 (_ BitVec 32))
(declare-const bv_1 (_ BitVec 32))
(declare-const bv_2 (_ BitVec 32))
(declare-const bv_3 (_ BitVec 32))
(declare-const bv_4 (_ BitVec 32))
(assert (or (and (bvuge bv_3 bv_1) (bvugt #x65633f3f  bv_2)) (or (bvsle bv_3 bv_0) (bvugt #x678050fc  bv_4))))
(assert (bvsle (bvsrem (bvsrem bv_1 bv_1) (bvshl bv_2 bv_3)) (bvsdiv (bvsdiv #xaedc8be8  #xeccf2f35 ) (bvlshr bv_4 #x1afcdc4c ))))
(assert (bvule (bvsrem (bvor bv_0 bv_3) (bvlshr #x595e2653  #x64ab6348 )) (bvnor (bvand #x398364d1  bv_3) (bvmul bv_1 #x07450da2 ))))
(assert (bvslt (bvnand (bvsmod bv_3 bv_3) (bvsmod bv_3 #x6a3bbe93 )) (bvand (bvsrem #x7432a168  bv_2) (bvsmod bv_3 #xfc161818 ))))
(assert (bvule (bvshl (bvudiv #xc8f53720  #xae2e8336 ) (bvnand bv_0 bv_2)) (bvurem (bvurem bv_2 bv_3) (bvmul #x3ca0b397  bv_0))))
(check-sat)
(exit)
